DIMACS2
80 221 69 274 220 117 190 209 289 302 173 160 137 226 245 121 197 314 185 9 269 251 246 24 56 63 78 210 67 206 188 267 257 175 300 225 315 279 71 131 236 29 118 134 33 107 84 285 2 308 262 290 23 217 1 138 73 309 44 232 148 68 261 59 43 287 168 146 280 292 133 227 177 294 195 169 167 181 288 124 192
p edge 320 322
e 0 44 34.0
e 1 33 30.0
e 2 305 48.0
e 3 204 9.0
e 4 318 2.0
e 4 0 3.0
e 5 205 1.0
e 5 4 1.0
e 6 123 1.0
e 7 101 1.0
e 8 202 1.0
e 9 115 31.0
e 10 186 1.0
e 11 221 1.0
e 12 228 1.0
e 13 205 1.0
e 14 31 1.0
e 15 155 1.0
e 16 245 27.0
e 17 38 1.0
e 18 81 1.0
e 19 10 1.0
e 20 123 1.0
e 21 270 2.0
e 22 192 27.0
e 23 28 34.0
e 24 53 48.0
e 25 97 2.0
e 26 163 1.0
e 27 35 1.0
e 28 65 1.0
e 29 85 8.0
e 30 291 1.0
e 31 239 2.0
e 32 278 1.0
e 33 227 14.0
e 34 260 2.0
e 35 195 13.0
e 36 57 1.0
e 37 38 1.0
e 38 309 39.0
e 39 107 28.0
e 40 165 1.0
e 41 236 2.0
e 42 214 1.0
e 43 225 3.0
e 44 264 6.0
e 45 137 11.0
e 46 16 1.0
e 47 296 5.0
e 48 287 35.0
e 49 264 2.0
e 50 168 40.0
e 51 291 1.0
e 52 115 6.0
e 53 298 4.0
e 54 185 9.0
e 55 208 1.0
e 56 107 40.0
e 57 270 1.0
e 58 192 8.0
e 59 65 2.0
e 60 13 1.0
e 61 19 1.0
e 62 114 1.0
e 63 225 17.0
e 64 14 1.0
e 65 179 1.0
e 66 193 1.0
e 67 314 33.0
e 68 204 42.0
e 69 120 33.0
e 70 237 1.0
e 71 252 14.0
e 72 28 1.0
e 73 154 23.0
e 74 279 49.0
e 75 57 1.0
e 76 153 1.0
e 77 108 1.0
e 78 82 18.0
e 79 134 48.0
e 80 302 16.0
e 81 144 1.0
e 82 72 4.0
e 83 9 11.0
e 84 47 39.0
e 85 147 8.0
e 86 11 1.0
e 87 140 1.0
e 88 53 1.0
e 89 50 2.0
e 90 152 1.0
e 91 306 1.0
e 92 146 37.0
e 93 228 1.0
e 94 226 6.0
e 95 299 1.0
e 96 39 1.0
e 97 63 5.0
e 98 39 1.0
e 99 266 2.0
e 100 265 11.0
e 101 222 2.0
e 102 225 32.0
e 103 153 1.0
e 104 298 1.0
e 105 201 5.0
e 106 81 1.0
e 107 81 26.0
e 108 21 1.0
e 109 32 1.0
e 110 304 2.0
e 111 78 43.0
e 112 84 9.0
e 113 12 1.0
e 114 4 1.0
e 115 316 3.0
e 116 22 1.0
e 117 58 9.0
e 118 234 35.0
e 119 128 1.0
e 120 107 25.0
e 121 157 40.0
e 122 312 1.0
e 123 115 2.0
e 124 76 27.0
e 125 84 23.0
e 126 253 1.0
e 127 289 35.0
e 128 262 44.0
e 129 122 1.0
e 130 226 47.0
e 131 274 18.0
e 132 301 1.0
e 133 315 18.0
e 134 162 27.0
e 135 80 1.0
e 136 34 1.0
e 137 35 41.0
e 138 16 5.0
e 139 230 1.0
e 140 199 2.0
e 141 295 3.0
e 142 75 1.0
e 143 89 4.0
e 144 197 22.0
e 145 162 1.0
e 146 285 45.0
e 147 271 2.0
e 148 143 7.0
e 149 250 1.0
e 150 115 3.0
e 151 6 1.0
e 152 49 1.0
e 153 282 1.0
e 154 87 1.0
e 155 131 27.0
e 156 232 35.0
e 157 162 1.0
e 158 136 1.0
e 159 140 2.0
e 160 122 28.0
e 161 193 1.0
e 162 75 1.0
e 163 127 2.0
e 164 187 1.0
e 165 16 1.0
e 166 111 1.0
e 167 236 8.0
e 168 135 9.0
e 169 76 26.0
e 170 284 2.0
e 171 292 48.0
e 172 212 1.0
e 173 243 36.0
e 174 153 1.0
e 175 292 30.0
e 176 10 11.0
e 177 81 28.0
e 178 138 38.0
e 179 145 1.0
e 180 279 21.0
e 181 35 42.0
e 182 111 1.0
e 183 174 1.0
e 184 14 1.0
e 185 51 27.0
e 186 139 1.0
e 187 286 1.0
e 188 182 7.0
e 189 124 34.0
e 190 305 4.0
e 191 114 1.0
e 192 181 3.0
e 193 261 30.0
e 194 168 18.0
e 195 79 19.0
e 196 192 17.0
e 197 182 9.0
e 198 233 1.0
e 199 299 5.0
e 200 239 1.0
e 201 206 12.0
e 202 40 1.0
e 203 258 1.0
e 204 241 4.0
e 205 60 1.0
e 206 176 2.0
e 207 200 1.0
e 208 266 1.0
e 209 170 38.0
e 210 122 30.0
e 211 150 1.0
e 212 81 1.0
e 213 258 1.0
e 214 257 12.0
e 215 312 1.0
e 216 310 1.0
e 217 67 48.0
e 218 150 2.0
e 219 89 5.0
e 220 55 25.0
e 221 163 35.0
e 222 129 1.0
e 223 22 1.0
e 224 259 3.0
e 225 119 7.0
e 226 146 40.0
e 227 218 39.0
e 228 89 1.0
e 229 49 2.0
e 230 159 1.0
e 231 130 1.0
e 232 144 28.0
e 233 242 1.0
e 234 134 34.0
e 235 56 3.0
e 236 256 27.0
e 237 39 2.0
e 238 182 1.0
e 239 299 5.0
e 240 80 2.0
e 241 198 1.0
e 242 170 1.0
e 243 83 2.0
e 244 135 1.0
e 245 61 39.0
e 246 192 10.0
e 247 102 1.0
e 248 62 1.0
e 249 37 1.0
e 250 75 1.0
e 251 219 3.0
e 252 250 8.0
e 253 154 1.0
e 254 35 1.0
e 255 252 9.0
e 256 31 1.0
e 257 58 22.0
e 258 91 1.0
e 259 9 44.0
e 260 157 2.0
e 261 87 43.0
e 262 193 30.0
e 263 318 2.0
e 264 253 1.0
e 265 84 38.0
e 266 17 2.0
e 267 244 23.0
e 268 251 34.0
e 269 121 40.0
e 270 278 1.0
e 271 122 1.0
e 272 303 1.0
e 273 234 1.0
e 274 283 5.0
e 275 162 2.0
e 276 59 22.0
e 277 155 1.0
e 278 208 1.0
e 279 284 22.0
e 280 129 22.0
e 281 307 7.0
e 282 20 1.0
e 283 270 1.0
e 284 193 2.0
e 285 287 16.0
e 286 34 1.0
e 287 177 10.0
e 288 217 43.0
e 289 208 21.0
e 290 242 10.0
e 291 181 44.0
e 292 86 27.0
e 293 299 3.0
e 294 220 32.0
e 295 267 36.0
e 296 193 1.0
e 297 177 34.0
e 298 259 1.0
e 299 118 15.0
e 300 110 45.0
e 301 165 1.0
e 302 180 33.0
e 303 89 1.0
e 304 245 8.0
e 305 232 35.0
e 306 142 1.0
e 307 267 11.0
e 308 86 28.0
e 309 274 6.0
e 310 20 1.0
e 311 221 42.0
e 312 318 1.0
e 313 43 28.0
e 314 209 25.0
e 315 189 38.0
e 316 119 2.0
e 317 275 2.0
e 318 29 44.0
e 319 71 41.0
